predicate pumpkin_cumulative(array [int] of var int: s,array [int] of int: d,array [int] of int: r,int: b);
predicate pumpkin_array_int_maximum(var int: m,array [int] of var int: x);
int: X_INTRODUCED_321_ = 4051;
array [1..150] of int: X_INTRODUCED_168_ = [1,1,1,1,1,1,1,1,1,1,1,1,1,1,1,1,1,1,1,1,1,1,1,1,1,1,1,1,1,1,1,1,1,1,1,1,1,1,1,1,1,1,1,1,1,1,1,1,1,1,1,1,1,1,1,1,1,1,1,1,1,1,1,1,1,1,1,1,1,1,1,1,1,1,1,1,1,1,1,1,1,1,1,1,1,1,1,1,1,1,1,1,1,1,1,1,1,1,1,1,1,1,1,1,1,1,1,1,1,1,1,1,1,1,1,1,1,1,1,1,1,1,1,1,1,1,1,1,1,1,1,1,1,1,1,1,1,1,1,1,1,1,1,1,1,1,1,1,1,1];
array [1..150] of int: X_INTRODUCED_169_ = [84,22,20,46,86,3,91,17,6,60,10,57,65,18,98,96,81,68,53,5,41,77,2,23,96,16,35,9,90,93,69,8,29,52,77,66,20,24,16,67,68,37,55,79,73,59,96,35,90,6,6,64,76,64,49,29,2,51,1,18,100,37,84,67,97,42,45,57,45,24,3,34,63,95,29,1,3,4,5,10,3,10,4,7,7,5,7,4,9,2,4,8,5,2,1,8,4,1,8,5,6,2,2,1,5,7,1,1,9,10,8,9,5,5,1,6,2,6,5,6,1,2,5,4,4,2,10,1,1,2,6,8,2,9,2,1,9,4,9,7,2,5,8,9,4,5,9,10,4,6];
var 0..2530: X_INTRODUCED_17_;
var 0..4051: X_INTRODUCED_18_;
var 0..1018: X_INTRODUCED_19_;
var 0..3519: X_INTRODUCED_20_;
var 0..1252: X_INTRODUCED_21_;
var 0..653: X_INTRODUCED_22_;
var 0..3871: X_INTRODUCED_23_;
var 0..1501: X_INTRODUCED_24_;
var 0..1058: X_INTRODUCED_25_;
var 0..3545: X_INTRODUCED_26_;
var 0..1354: X_INTRODUCED_27_;
var 0..936: X_INTRODUCED_28_;
var 0..1473: X_INTRODUCED_29_;
var 0..4051: X_INTRODUCED_30_;
var 0..3823: X_INTRODUCED_31_;
var 0..2537: X_INTRODUCED_32_;
var 0..1412: X_INTRODUCED_33_;
var 0..3495: X_INTRODUCED_34_;
var 0..1749: X_INTRODUCED_35_;
var 0..1750: X_INTRODUCED_36_;
var 0..1987: X_INTRODUCED_37_;
var 0..2382: X_INTRODUCED_38_;
var 0..2625: X_INTRODUCED_39_;
var 0..1634: X_INTRODUCED_40_;
var 0..1707: X_INTRODUCED_41_;
var 0..3650: X_INTRODUCED_42_;
var 0..4051: X_INTRODUCED_43_;
var 0..1680: X_INTRODUCED_44_;
var 0..3982: X_INTRODUCED_45_;
var 0..1961: X_INTRODUCED_46_;
var 0..1938: X_INTRODUCED_47_;
var 0..3646: X_INTRODUCED_48_;
var 0..3349: X_INTRODUCED_49_;
var 0..897: X_INTRODUCED_50_;
var 0..4051: X_INTRODUCED_51_;
var 0..2938: X_INTRODUCED_52_;
var 0..3580: X_INTRODUCED_53_;
var 0..883: X_INTRODUCED_54_;
var 0..2584: X_INTRODUCED_55_;
var 0..838: X_INTRODUCED_56_;
var 0..3905: X_INTRODUCED_57_;
var 0..2730: X_INTRODUCED_58_;
var 0..2652: X_INTRODUCED_59_;
var 0..3832: X_INTRODUCED_60_;
var 0..4051: X_INTRODUCED_61_;
var 0..996: X_INTRODUCED_62_;
var 0..1248: X_INTRODUCED_63_;
var 0..2059: X_INTRODUCED_64_;
var 0..2576: X_INTRODUCED_65_;
var 0..1459: X_INTRODUCED_66_;
var 0..2897: X_INTRODUCED_67_;
var 0..1204: X_INTRODUCED_68_;
var 0..4051: X_INTRODUCED_69_;
var 0..380: X_INTRODUCED_70_;
var 0..1675: X_INTRODUCED_71_;
var 0..1679: X_INTRODUCED_72_;
var 0..785: X_INTRODUCED_73_;
var 0..1202: X_INTRODUCED_74_;
var 0..3806: X_INTRODUCED_75_;
var 0..3484: X_INTRODUCED_76_;
var 0..2090: X_INTRODUCED_77_;
var 0..1048: X_INTRODUCED_78_;
var 0..979: X_INTRODUCED_79_;
var 0..1967: X_INTRODUCED_80_;
var 0..3835: X_INTRODUCED_81_;
var 0..2294: X_INTRODUCED_82_;
var 0..2207: X_INTRODUCED_83_;
var 0..4051: X_INTRODUCED_84_;
var 0..305: X_INTRODUCED_85_;
var 0..2136: X_INTRODUCED_86_;
var 0..2873: X_INTRODUCED_87_;
var 0..2934: X_INTRODUCED_88_;
var 0..3701: X_INTRODUCED_89_;
var 0..316: X_INTRODUCED_90_;
var 0..2254: X_INTRODUCED_91_;
var 0..3823: X_INTRODUCED_92_;
var 0..4051: X_INTRODUCED_93_;
var 0..2916: X_INTRODUCED_94_;
var 0..739: X_INTRODUCED_95_;
var 0..607: X_INTRODUCED_96_;
var 0..4051: X_INTRODUCED_97_;
var 0..3543: X_INTRODUCED_98_;
var 0..4028: X_INTRODUCED_99_;
var 0..1709: X_INTRODUCED_100_;
var 0..2975: X_INTRODUCED_101_;
var 0..375: X_INTRODUCED_102_;
var 0..3384: X_INTRODUCED_103_;
var 0..4051: X_INTRODUCED_104_;
var 0..3337: X_INTRODUCED_105_;
var 0..1799: X_INTRODUCED_106_;
var 0..4051: X_INTRODUCED_107_;
var 0..3515: X_INTRODUCED_108_;
var 0..1117: X_INTRODUCED_109_;
var 0..4051: X_INTRODUCED_110_;
var 0..2274: X_INTRODUCED_111_;
var 0..3486: X_INTRODUCED_112_;
var 0..2123: X_INTRODUCED_113_;
var 0..2617: X_INTRODUCED_114_;
var 0..4051: X_INTRODUCED_115_;
var 0..3741: X_INTRODUCED_116_;
var 0..4051: X_INTRODUCED_117_;
var 0..1939: X_INTRODUCED_118_;
var 0..2408: X_INTRODUCED_119_;
var 0..3628: X_INTRODUCED_120_;
var 0..3508: X_INTRODUCED_121_;
var 0..2265: X_INTRODUCED_122_;
var 0..3951: X_INTRODUCED_123_;
var 0..516: X_INTRODUCED_124_;
var 0..607: X_INTRODUCED_125_;
var 0..4051: X_INTRODUCED_126_;
var 0..1040: X_INTRODUCED_127_;
var 0..2922: X_INTRODUCED_128_;
var 0..1640: X_INTRODUCED_129_;
var 0..1787: X_INTRODUCED_130_;
var 0..835: X_INTRODUCED_131_;
var 0..1680: X_INTRODUCED_132_;
var 0..1372: X_INTRODUCED_133_;
var 0..1312: X_INTRODUCED_134_;
var 0..4051: X_INTRODUCED_135_;
var 0..2894: X_INTRODUCED_136_;
var 0..1239: X_INTRODUCED_137_;
var 0..1091: X_INTRODUCED_138_;
var 0..3960: X_INTRODUCED_139_;
var 0..368: X_INTRODUCED_140_;
var 0..1401: X_INTRODUCED_141_;
var 0..2069: X_INTRODUCED_142_;
var 0..2333: X_INTRODUCED_143_;
var 0..788: X_INTRODUCED_144_;
var 0..1778: X_INTRODUCED_145_;
var 0..4051: X_INTRODUCED_146_;
var 0..1836: X_INTRODUCED_147_;
var 0..3219: X_INTRODUCED_148_;
var 0..4017: X_INTRODUCED_149_;
var 0..2289: X_INTRODUCED_150_;
var 0..2073: X_INTRODUCED_151_;
var 0..2489: X_INTRODUCED_152_;
var 0..3576: X_INTRODUCED_153_;
var 0..2016: X_INTRODUCED_154_;
var 0..1745: X_INTRODUCED_155_;
var 0..1482: X_INTRODUCED_156_;
var 0..2366: X_INTRODUCED_157_;
var 0..4051: X_INTRODUCED_158_;
var 0..1212: X_INTRODUCED_159_;
var 0..3904: X_INTRODUCED_160_;
var 0..1848: X_INTRODUCED_161_;
var 0..2059: X_INTRODUCED_162_;
var 0..3912: X_INTRODUCED_163_;
var 0..3102: X_INTRODUCED_164_;
var 0..3657: X_INTRODUCED_165_;
var 0..170: X_INTRODUCED_166_;
var 4051..4051: objective;
array [1..150] of var int: start_times:: output_array([1..150]) = [X_INTRODUCED_17_,X_INTRODUCED_18_,X_INTRODUCED_19_,X_INTRODUCED_20_,X_INTRODUCED_21_,X_INTRODUCED_22_,X_INTRODUCED_23_,X_INTRODUCED_24_,X_INTRODUCED_25_,X_INTRODUCED_26_,X_INTRODUCED_27_,X_INTRODUCED_28_,X_INTRODUCED_29_,X_INTRODUCED_30_,X_INTRODUCED_31_,X_INTRODUCED_32_,X_INTRODUCED_33_,X_INTRODUCED_34_,X_INTRODUCED_35_,X_INTRODUCED_36_,X_INTRODUCED_37_,X_INTRODUCED_38_,X_INTRODUCED_39_,X_INTRODUCED_40_,X_INTRODUCED_41_,X_INTRODUCED_42_,X_INTRODUCED_43_,X_INTRODUCED_44_,X_INTRODUCED_45_,X_INTRODUCED_46_,X_INTRODUCED_47_,X_INTRODUCED_48_,X_INTRODUCED_49_,X_INTRODUCED_50_,X_INTRODUCED_51_,X_INTRODUCED_52_,X_INTRODUCED_53_,X_INTRODUCED_54_,X_INTRODUCED_55_,X_INTRODUCED_56_,X_INTRODUCED_57_,X_INTRODUCED_58_,X_INTRODUCED_59_,X_INTRODUCED_60_,X_INTRODUCED_61_,X_INTRODUCED_62_,X_INTRODUCED_63_,X_INTRODUCED_64_,X_INTRODUCED_65_,X_INTRODUCED_66_,X_INTRODUCED_67_,X_INTRODUCED_68_,X_INTRODUCED_69_,X_INTRODUCED_70_,X_INTRODUCED_71_,X_INTRODUCED_72_,X_INTRODUCED_73_,X_INTRODUCED_74_,X_INTRODUCED_75_,X_INTRODUCED_76_,X_INTRODUCED_77_,X_INTRODUCED_78_,X_INTRODUCED_79_,X_INTRODUCED_80_,X_INTRODUCED_81_,X_INTRODUCED_82_,X_INTRODUCED_83_,X_INTRODUCED_84_,X_INTRODUCED_85_,X_INTRODUCED_86_,X_INTRODUCED_87_,X_INTRODUCED_88_,X_INTRODUCED_89_,X_INTRODUCED_90_,X_INTRODUCED_91_,X_INTRODUCED_92_,X_INTRODUCED_93_,X_INTRODUCED_94_,X_INTRODUCED_95_,X_INTRODUCED_96_,X_INTRODUCED_97_,X_INTRODUCED_98_,X_INTRODUCED_99_,X_INTRODUCED_100_,X_INTRODUCED_101_,X_INTRODUCED_102_,X_INTRODUCED_103_,X_INTRODUCED_104_,X_INTRODUCED_105_,X_INTRODUCED_106_,X_INTRODUCED_107_,X_INTRODUCED_108_,X_INTRODUCED_109_,X_INTRODUCED_110_,X_INTRODUCED_111_,X_INTRODUCED_112_,X_INTRODUCED_113_,X_INTRODUCED_114_,X_INTRODUCED_115_,X_INTRODUCED_116_,X_INTRODUCED_117_,X_INTRODUCED_118_,X_INTRODUCED_119_,X_INTRODUCED_120_,X_INTRODUCED_121_,X_INTRODUCED_122_,X_INTRODUCED_123_,X_INTRODUCED_124_,X_INTRODUCED_125_,X_INTRODUCED_126_,X_INTRODUCED_127_,X_INTRODUCED_128_,X_INTRODUCED_129_,X_INTRODUCED_130_,X_INTRODUCED_131_,X_INTRODUCED_132_,X_INTRODUCED_133_,X_INTRODUCED_134_,X_INTRODUCED_135_,X_INTRODUCED_136_,X_INTRODUCED_137_,X_INTRODUCED_138_,X_INTRODUCED_139_,X_INTRODUCED_140_,X_INTRODUCED_141_,X_INTRODUCED_142_,X_INTRODUCED_143_,X_INTRODUCED_144_,X_INTRODUCED_145_,X_INTRODUCED_146_,X_INTRODUCED_147_,X_INTRODUCED_148_,X_INTRODUCED_149_,X_INTRODUCED_150_,X_INTRODUCED_151_,X_INTRODUCED_152_,X_INTRODUCED_153_,X_INTRODUCED_154_,X_INTRODUCED_155_,X_INTRODUCED_156_,X_INTRODUCED_157_,X_INTRODUCED_158_,X_INTRODUCED_159_,X_INTRODUCED_160_,X_INTRODUCED_161_,X_INTRODUCED_162_,X_INTRODUCED_163_,X_INTRODUCED_164_,X_INTRODUCED_165_,X_INTRODUCED_166_];
constraint pumpkin_cumulative(start_times,X_INTRODUCED_169_,X_INTRODUCED_168_,1);
constraint pumpkin_array_int_maximum(4051,start_times);
solve :: int_search(start_times,smallest,indomain_min,complete)  minimize X_INTRODUCED_321_;

